nSpot = 8;
k = 3; % number of stones

maxSep = 5.0;

dist = 
[|0.000, 1.414, 2.236, 3.606, 5.831, 6.403, 6.325, 7.616 |
1.414, 0.000, 1.000, 4.123, 6.325, 6.708, 5.831, 7.211 |
2.236, 1.000, 0.000, 4.000, 6.083, 6.325, 5.000, 6.403 |
3.606, 4.123, 4.000, 0.000, 2.236, 2.828, 4.123, 5.000 |
5.831, 6.325, 6.083, 2.236, 0.000, 1.000, 4.243, 4.472 |
6.403, 6.708, 6.325, 2.828, 1.000, 0.000, 3.606, 3.606 |
6.325, 5.831, 5.000, 4.123, 4.243, 3.606, 0.000, 1.414 |
7.616, 7.211, 6.403, 5.000, 4.472, 3.606, 1.414, 0.000 |];